(set-logic QF_LIA)
(declare-fun x0 () Int)
(declare-fun x1 () Int)
(declare-fun x2 () Int)
(declare-fun x3 () Int)
(declare-fun x4 () Int)
(declare-fun x5 () Int)
(declare-fun x6 () Int)
(declare-fun x7 () Int)
(declare-fun x8 () Int)
(declare-fun x9 () Int)
(declare-fun A0 () Bool)
(declare-fun A1 () Bool)
(declare-fun A2 () Bool)
(declare-fun A3 () Bool)
(declare-fun A4 () Bool)
(declare-fun A5 () Bool)
(declare-fun A6 () Bool)
(declare-fun A7 () Bool)
(declare-fun A8 () Bool)
(assert (let ((.def_0 (* (- 1) x2))) (let ((.def_1 (< .def_0 1))) (let ((.def_2 (or .def_1 A5))) (let ((.def_3 (not .def_2))) (let ((.def_4 (not A4))) (let ((.def_5 (and .def_4 A2))) (let ((.def_6 (= .def_5 .def_3))) (let ((.def_7 (* (- 1) x5))) (let ((.def_8 (* 1 x9))) (let ((.def_9 (+ .def_8 .def_7))) (let ((.def_10 (< .def_9 1))) (let ((.def_11 (not .def_10))) (let ((.def_12 (or .def_11 A4))) (let ((.def_13 (* (- 1) x6))) (let ((.def_14 (< .def_13 (- 1)))) (let ((.def_15 (* 1 x0))) (let ((.def_16 (< .def_15 1))) (let ((.def_17 (not .def_16))) (let ((.def_18 (or .def_17 .def_14))) (let ((.def_19 (or .def_18 .def_12))) (let ((.def_20 (not .def_19))) (let ((.def_21 (or .def_20 .def_6))) (let ((.def_22 (not .def_21))) (let ((.def_23 (not A2))) (let ((.def_24 (* (- 1) x0))) (let ((.def_25 (< .def_24 (- 1)))) (let ((.def_26 (or .def_25 .def_23))) (let ((.def_27 (* 1 x8))) (let ((.def_28 (+ .def_15 .def_27))) (let ((.def_29 (< .def_28 1))) (let ((.def_30 (and .def_29 A8))) (let ((.def_31 (and .def_30 .def_26))) (let ((.def_32 (not .def_31))) (let ((.def_33 (not A8))) (let ((.def_34 (< .def_7 1))) (let ((.def_35 (not .def_34))) (let ((.def_36 (or .def_35 .def_33))) (let ((.def_37 (* 1 x7))) (let ((.def_38 (< .def_37 1))) (let ((.def_39 (not .def_38))) (let ((.def_40 (or .def_39 .def_23))) (let ((.def_41 (and .def_40 .def_36))) (let ((.def_42 (not .def_41))) (let ((.def_43 (and .def_42 .def_32))) (let ((.def_44 (or .def_43 .def_22))) (let ((.def_45 (* (- 1) x1))) (let ((.def_46 (+ .def_8 .def_45))) (let ((.def_47 (< .def_46 (- 1)))) (let ((.def_48 (* (- 1) x3))) (let ((.def_49 (+ .def_48 .def_45))) (let ((.def_50 (< .def_49 1))) (let ((.def_51 (not .def_50))) (let ((.def_52 (or .def_51 .def_47))) (let ((.def_53 (or A2 A1))) (let ((.def_54 (= .def_53 .def_52))) (let ((.def_55 (not .def_54))) (let ((.def_56 (* 1 x2))) (let ((.def_57 (* 1 x6))) (let ((.def_58 (+ .def_57 .def_56))) (let ((.def_59 (< .def_58 1))) (let ((.def_60 (not .def_59))) (let ((.def_61 (not .def_14))) (let ((.def_62 (and .def_61 .def_60))) (let ((.def_63 (* 1 x1))) (let ((.def_64 (< .def_63 1))) (let ((.def_65 (not .def_64))) (let ((.def_66 (< .def_56 1))) (let ((.def_67 (and .def_66 .def_65))) (let ((.def_68 (not .def_67))) (let ((.def_69 (and .def_68 .def_62))) (let ((.def_70 (not .def_69))) (let ((.def_71 (and .def_70 .def_55))) (let ((.def_72 (not .def_71))) (let ((.def_73 (or .def_33 A1))) (let ((.def_74 (< .def_27 1))) (let ((.def_75 (= .def_74 .def_17))) (let ((.def_76 (not .def_75))) (let ((.def_77 (= .def_76 .def_73))) (let ((.def_78 (not .def_77))) (let ((.def_79 (< .def_63 (- 1)))) (let ((.def_80 (= A5 .def_79))) (let ((.def_81 (+ .def_27 .def_37))) (let ((.def_82 (< .def_81 (- 1)))) (let ((.def_83 (or .def_82 .def_33))) (let ((.def_84 (not .def_83))) (let ((.def_85 (or .def_84 .def_80))) (let ((.def_86 (and .def_85 .def_78))) (let ((.def_87 (not .def_86))) (let ((.def_88 (or .def_87 .def_72))) (let ((.def_89 (not .def_88))) (let ((.def_90 (and .def_89 .def_44))) (let ((.def_91 (+ .def_45 .def_24))) (let ((.def_92 (< .def_91 1))) (let ((.def_93 (not .def_92))) (let ((.def_94 (* (- 1) x4))) (let ((.def_95 (< .def_94 (- 1)))) (let ((.def_96 (not .def_95))) (let ((.def_97 (and .def_96 .def_93))) (let ((.def_98 (not .def_97))) (let ((.def_99 (* 1 x4))) (let ((.def_100 (+ .def_8 .def_99))) (let ((.def_101 (< .def_100 (- 1)))) (let ((.def_102 (not .def_101))) (let ((.def_103 (+ .def_48 .def_8))) (let ((.def_104 (< .def_103 (- 1)))) (let ((.def_105 (not .def_104))) (let ((.def_106 (or .def_105 .def_102))) (let ((.def_107 (not .def_106))) (let ((.def_108 (and .def_107 .def_98))) (let ((.def_109 (not .def_108))) (let ((.def_110 (not A3))) (let ((.def_111 (and .def_110 A6))) (let ((.def_112 (not .def_111))) (let ((.def_113 (< .def_15 (- 1)))) (let ((.def_114 (not .def_113))) (let ((.def_115 (and A6 .def_114))) (let ((.def_116 (or .def_115 .def_112))) (let ((.def_117 (or .def_116 .def_109))) (let ((.def_118 (not .def_117))) (let ((.def_119 (not .def_79))) (let ((.def_120 (and A5 .def_119))) (let ((.def_121 (* 1 x5))) (let ((.def_122 (< .def_121 (- 1)))) (let ((.def_123 (and .def_122 A8))) (let ((.def_124 (or .def_123 .def_120))) (let ((.def_125 (< .def_121 1))) (let ((.def_126 (not .def_125))) (let ((.def_127 (= .def_126 A4))) (let ((.def_128 (not .def_127))) (let ((.def_129 (not A0))) (let ((.def_130 (+ .def_63 .def_24))) (let ((.def_131 (< .def_130 (- 1)))) (let ((.def_132 (not .def_131))) (let ((.def_133 (and .def_132 .def_129))) (let ((.def_134 (not .def_133))) (let ((.def_135 (and .def_134 .def_128))) (let ((.def_136 (and .def_135 .def_124))) (let ((.def_137 (or .def_136 .def_118))) (let ((.def_138 (not .def_137))) (let ((.def_139 (not A7))) (let ((.def_140 (or .def_33 .def_139))) (let ((.def_141 (or A1 A7))) (let ((.def_142 (not .def_141))) (let ((.def_143 (and .def_142 .def_140))) (let ((.def_144 (+ .def_94 .def_45))) (let ((.def_145 (< .def_144 1))) (let ((.def_146 (not .def_145))) (let ((.def_147 (not A1))) (let ((.def_148 (or .def_147 .def_146))) (let ((.def_149 (not .def_148))) (let ((.def_150 (+ .def_63 .def_57))) (let ((.def_151 (< .def_150 1))) (let ((.def_152 (and .def_23 .def_151))) (let ((.def_153 (or .def_152 .def_149))) (let ((.def_154 (not .def_153))) (let ((.def_155 (or .def_154 .def_143))) (let ((.def_156 (and .def_139 .def_33))) (let ((.def_157 (not .def_156))) (let ((.def_158 (not .def_74))) (let ((.def_159 (+ .def_99 .def_13))) (let ((.def_160 (< .def_159 1))) (let ((.def_161 (not .def_160))) (let ((.def_162 (= .def_161 .def_158))) (let ((.def_163 (not .def_162))) (let ((.def_164 (or .def_163 .def_157))) (let ((.def_165 (and .def_147 .def_33))) (let ((.def_166 (not .def_165))) (let ((.def_167 (+ .def_56 .def_121))) (let ((.def_168 (< .def_167 1))) (let ((.def_169 (= .def_168 .def_74))) (let ((.def_170 (or .def_169 .def_166))) (let ((.def_171 (not .def_170))) (let ((.def_172 (or .def_171 .def_164))) (let ((.def_173 (not .def_172))) (let ((.def_174 (or .def_173 .def_155))) (let ((.def_175 (and .def_174 .def_138))) (let ((.def_176 (and .def_175 .def_90))) (let ((.def_177 (not .def_176))) (let ((.def_178 (<= x9 1))) (let ((.def_179 (<= 0 x9))) (let ((.def_180 (<= x8 1))) (let ((.def_181 (<= 0 x8))) (let ((.def_182 (<= x7 1))) (let ((.def_183 (<= 0 x7))) (let ((.def_184 (<= x6 1))) (let ((.def_185 (<= 0 x6))) (let ((.def_186 (<= x5 1))) (let ((.def_187 (<= 0 x5))) (let ((.def_188 (<= x4 1))) (let ((.def_189 (<= 0 x4))) (let ((.def_190 (<= x3 1))) (let ((.def_191 (<= 0 x3))) (let ((.def_192 (<= x2 1))) (let ((.def_193 (<= 0 x2))) (let ((.def_194 (<= x1 1))) (let ((.def_195 (<= 0 x1))) (let ((.def_196 (<= x0 1))) (let ((.def_197 (<= 0 x0))) (let ((.def_198 (and .def_197 .def_196 .def_195 .def_194 .def_193 .def_192 .def_191 .def_190 .def_189 .def_188 .def_187 .def_186 .def_185 .def_184 .def_183 .def_182 .def_181 .def_180 .def_179 .def_178 .def_177))) .def_198))))))))))))))))))))))))))))))))))))))))))))))))))))))))))))))))))))))))))))))))))))))))))))))))))))))))))))))))))))))))))))))))))))))))))))))))))))))))))))))))))))))))))))))))))))))))))))))))))))))))
(check-sat)
